Minimize
  + 130.137933377794 Constant
Subject To
 R191: (cloth0-pose-(1,_0)) = -0.15
 R324: (right_cloth_target_0_off-value-(1,_0)) = -0.1
 R661: (right_cloth_target_0_off-value-(1,_0)) - (cloth0-pose-(1,_0))
   <= 0.01
Bounds
 (right_cloth_target_0_off-value-(1,_0)) free
 (cloth0-pose-(1,_0)) free
 Constant = 1
End
